; Property from "Case-Analysis for Rippling and Inductive Proof",
; Moa Johansson, Lucas Dixon and Alan Bundy, ITP 2010
(declare-datatypes () ((Nat (Z) (S (proj1-S Nat)))))
(define-fun-rec
  <=2
    ((x Nat) (y Nat)) Bool
    (match x
      (case Z true)
      (case (S z)
        (match y
          (case Z false)
          (case (S x2) (<=2 z x2))))))
(prove (forall ((m Nat) (n Nat)) (=> (<=2 m n) (<=2 m (S n)))))
